multiobj/instances/reallike/Ter-rl-5-2-0.80-1.0-1.in
5 2
0 123 17 72 89 
123 0 116 51 121 
17 116 0 64 101 
72 51 64 0 97 
89 121 101 97 0 
0 0 0 27805 1 
0 0 24573 46564 14549 
0 24573 0 0 0 
27805 46564 0 0 0 
1 14549 0 0 0 
0 0 0 1280 0 
0 0 1325 12798 7967 
0 1325 0 0 0 
1280 12798 0 0 2 
0 7967 0 2 0 
