multiobj/solutions/reallike/Ter-rl-5-2-0.80-1.0-1.out
4 2
0 3 1 2 4 
12234692 3362816 
4 2 3 0 1 
13053420 2681408 
3 0 1 2 4 
13777090 2343452 
4 2 1 0 3 
14095868 1990436 
